100
32
24
31
11
1
1
19
8
2
8
23
2
18
24
30
19
28
27
22
22
27
23
3
18
17
18
27
20
23
19
28
13
19
4
1
2
25
8
19
28
23
20
20
17
27
22
26
27
5
10
19
31
3
26
1
31
32
23
19
11
20
21
30
27
19
29
29
5
22
17
18
27
3
23
11
2
8
17
29
10
3
17
5
30
25
17
22
17
2
12
28
28
22
29
21
5
14
17
3
18
26